c instance by G2
c solution = 0111110010010
c Known solution cost is 594 
p cnf 13 30
w 31 37 78 28 24 90 93 16 58 18 31 70 20
-12 -11 -5 0
-10 8 13 0
3 -12 -2 0
2 8 5 0
-4 12 9 0
-9 13 -8 0
8 6 7 0
-9 2 11 0
10 6 -5 0
8 6 -4 0
-13 -9 -7 0
-1 -11 12 0
6 -5 -9 0
-7 9 11 0
-13 -12 -11 0
4 12 -5 0
-12 -2 -7 0
7 1 -8 0
-6 -3 12 0
6 -2 -13 0
-1 -4 8 0
1 12 11 0
3 2 -6 0
-7 11 -2 0
1 -4 3 0
-2 1 -13 0
4 10 -5 0
-3 9 -8 0
10 8 5 0
-5 13 9 0
